experiment/data/lkh-res/Vrp-Set-X-n327/Vrp-Set-X-n327-lkh/0.lkh1.vrp
NAME : 0
COMMENT : CVRP Instance
TYPE : CVRP
DIMENSION : 327
EDGE_WEIGHT_TYPE : EUC_2D
CAPACITY : 128
NODE_COORD_SECTION
1	23600	95100
2	73500	28900
3	84100	73500
4	84600	82100
5	90700	81000
6	5500	13600
7	37200	42200
8	43700	58400
9	50900	82200
10	5700	51900
11	56300	33300
12	75000	800
13	64400	69200
14	12300	78700
15	86500	61800
16	83300	45300
17	73600	64300
18	9000	93000
19	80400	19200
20	43500	16400
21	54000	91100
22	74700	8000
23	48600	23900
24	51100	78400
25	63900	24700
26	33700	1100
27	9500	70600
28	71900	83900
29	94300	42100
30	5500	63300
31	39600	80700
32	91600	25200
33	19100	71600
34	55200	50000
35	22600	52000
36	66600	83300
37	45000	43100
38	42700	30700
39	400	8900
40	73600	78400
41	61500	38200
42	73900	38600
43	22900	52700
44	59400	19700
45	91000	39800
46	49200	21400
47	97400	10700
48	91400	55600
49	38400	82700
50	15100	90800
51	39000	87300
52	7000	23200
53	41800	2900
54	12800	72100
55	21100	12900
56	64100	99300
57	22000	88300
58	29300	55100
59	24400	95200
60	91000	48900
61	32400	28000
62	46600	43700
63	87900	67600
64	35900	77000
65	9500	63100
66	92000	5600
67	57700	40700
68	17800	76900
69	22500	35900
70	88200	22800
71	38500	51600
72	75900	81400
73	23400	40500
74	3300	41200
75	42300	13500
76	19400	12100
77	97000	72300
78	600	20600
79	39200	66900
80	78200	30000
81	10700	78600
82	88900	85500
83	6800	28000
84	52200	84800
85	65300	7800
86	71900	73600
87	80900	40400
88	62000	65500
89	43900	60500
90	99000	87400
91	4600	23600
92	98000	50000
93	62500	38300
94	14600	43000
95	79500	24100
96	71400	55400
97	20000	94600
98	8900	20700
99	14400	64800
100	63300	87700
101	48200	84300
102	67000	15000
103	76300	95100
104	75500	92200
105	61500	13900
106	19200	84400
107	39600	40900
108	79900	3000
109	7200	91600
110	91700	1200
111	37000	55100
112	68600	93700
113	15600	76900
114	55300	2100
115	8600	66600
116	4200	26100
117	49400	30900
118	76700	37800
119	52800	31100
120	69700	2100
121	54500	66500
122	67500	22800
123	75200	81200
124	18000	12000
125	9400	97900
126	34800	86100
127	39700	75300
128	22900	85500
129	75600	91000
130	31100	20300
131	17700	49100
132	28000	40800
133	47000	13200
134	4000	32400
135	38600	64400
136	97500	36000
137	900	83600
138	46600	93400
139	39700	59800
140	65800	17500
141	47000	22700
142	47200	88200
143	15700	400
144	87600	71400
145	78000	2500
146	39400	65800
147	69700	27800
148	87900	72300
149	19200	97000
150	52200	89600
151	62000	10300
152	12200	34200
153	79000	31100
154	59900	86600
155	61100	92700
156	76100	60200
157	98300	31700
158	32000	98100
159	93300	46100
160	15600	92200
161	1000	77300
162	83400	29300
163	92600	18600
164	37000	61300
165	44000	47700
166	24300	99900
167	50800	84700
168	66900	37600
169	66600	74500
170	10300	93100
171	67600	95300
172	5400	97800
173	68700	95800
174	49000	47800
175	73900	92000
176	75300	30500
177	10900	93700
178	1500	91500
179	40400	49000
180	60200	73800
181	72400	96500
182	34800	56500
183	68800	79800
184	63200	67400
185	4000	98200
186	22300	94600
187	46400	94500
188	40800	36700
189	53000	77000
190	92400	69200
191	42800	76500
192	35800	48500
193	56500	72800
194	44300	29500
195	6600	93800
196	22200	99200
197	71600	34700
198	49500	76300
199	68300	45200
200	3600	88400
201	7400	95800
202	71900	30100
203	69800	82300
204	81600	41200
205	29200	36400
206	56500	95800
207	62600	77900
208	42900	53200
209	7900	94700
210	62800	77900
211	60900	88700
212	66400	93900
213	1700	99600
214	32800	98800
215	68000	38300
216	74200	35800
217	65900	37400
218	62200	54600
219	85000	97800
220	23000	96400
221	66300	42500
222	62200	90000
223	19500	91700
224	55900	93800
225	49600	96100
226	46900	48500
227	68800	78000
228	13500	94400
229	33800	90700
230	70000	75200
231	17600	85800
232	45700	35600
233	13300	94000
234	53100	32700
235	65600	68500
236	21500	82800
237	25700	99500
238	22400	99900
239	30800	62500
240	55200	99500
241	68900	72300
242	24400	51700
243	61500	18500
244	17400	91100
245	64500	99800
246	66800	40900
247	46100	85000
248	60500	49600
249	44700	81500
250	64300	65200
251	28100	97000
252	54400	64900
253	68100	80500
254	23700	97600
255	59200	38100
256	23900	91100
257	57700	79300
258	74900	81600
259	44600	45800
260	4900	96500
261	70500	80200
262	64400	79600
263	46100	95800
264	24900	97800
265	85800	37400
266	68100	38700
267	67600	92500
268	10700	88200
269	22100	97400
270	4400	88400
271	34100	98500
272	58700	70200
273	40800	94100
274	68900	37900
275	52000	84600
276	36700	39300
277	45700	26100
278	61300	33900
279	29900	81900
280	68000	43100
281	67000	27200
282	58400	83200
283	20500	96800
284	72000	84000
285	8100	86200
286	43700	43000
287	44300	55700
288	22800	89000
289	70700	45800
290	36500	85500
291	67700	34500
292	52700	41600
293	22400	92900
294	67300	77400
295	29800	86900
296	52400	75800
297	62400	91800
298	11500	96600
299	23500	88200
300	39100	44600
301	55400	86600
302	75600	92100
303	46400	85700
304	54700	96600
305	46400	96900
306	72100	82300
307	41500	52500
308	63200	72000
309	48100	52400
310	60300	28600
311	77400	75300
312	52700	93500
313	72600	97900
314	58400	43700
315	84600	22100
316	68300	75100
317	73200	27100
318	75300	93500
319	7600	97500
320	56400	78700
321	31000	42000
322	61500	78800
323	40600	46300
324	88000	36400
325	55900	84900
326	70600	47200
327	39700	44900
DEMAND_SECTION
1	0
2	6
3	10
4	8
5	5
6	6
7	9
8	8
9	6
10	7
11	10
12	8
13	6
14	10
15	6
16	7
17	6
18	9
19	8
20	10
21	10
22	9
23	9
24	9
25	7
26	7
27	8
28	7
29	5
30	5
31	7
32	9
33	6
34	9
35	10
36	9
37	8
38	8
39	5
40	5
41	8
42	5
43	10
44	7
45	8
46	7
47	6
48	5
49	9
50	8
51	10
52	5
53	5
54	7
55	5
56	8
57	10
58	8
59	9
60	9
61	5
62	6
63	6
64	5
65	9
66	9
67	6
68	8
69	9
70	10
71	5
72	9
73	5
74	10
75	7
76	7
77	6
78	10
79	10
80	5
81	6
82	10
83	8
84	5
85	7
86	5
87	5
88	5
89	7
90	7
91	9
92	10
93	9
94	6
95	6
96	10
97	7
98	6
99	10
100	8
101	5
102	8
103	6
104	8
105	6
106	9
107	10
108	10
109	8
110	10
111	7
112	6
113	6
114	5
115	8
116	7
117	8
118	8
119	7
120	6
121	7
122	9
123	7
124	7
125	5
126	6
127	5
128	9
129	5
130	8
131	5
132	10
133	7
134	5
135	8
136	7
137	10
138	7
139	8
140	7
141	9
142	9
143	8
144	8
145	6
146	9
147	10
148	5
149	6
150	6
151	7
152	9
153	9
154	8
155	8
156	6
157	6
158	10
159	10
160	8
161	6
162	8
163	6
164	10
165	10
166	5
167	10
168	5
169	8
170	7
171	7
172	10
173	9
174	5
175	7
176	8
177	6
178	5
179	7
180	9
181	9
182	8
183	7
184	7
185	10
186	10
187	7
188	10
189	7
190	10
191	6
192	5
193	8
194	6
195	8
196	10
197	10
198	6
199	8
200	5
201	10
202	6
203	5
204	9
205	9
206	7
207	7
208	6
209	10
210	6
211	9
212	7
213	6
214	6
215	10
216	10
217	9
218	10
219	8
220	9
221	9
222	9
223	8
224	5
225	8
226	8
227	10
228	6
229	8
230	9
231	9
232	7
233	9
234	7
235	9
236	7
237	6
238	6
239	5
240	6
241	8
242	6
243	6
244	8
245	10
246	8
247	6
248	5
249	8
250	8
251	5
252	9
253	7
254	10
255	6
256	7
257	6
258	9
259	6
260	10
261	10
262	7
263	5
264	10
265	7
266	9
267	5
268	10
269	10
270	5
271	10
272	7
273	10
274	10
275	8
276	6
277	10
278	7
279	10
280	9
281	7
282	10
283	9
284	6
285	8
286	9
287	9
288	8
289	5
290	9
291	6
292	7
293	5
294	9
295	9
296	6
297	10
298	5
299	5
300	8
301	6
302	9
303	5
304	7
305	10
306	7
307	8
308	10
309	7
310	5
311	5
312	8
313	9
314	5
315	8
316	9
317	6
318	5
319	6
320	9
321	8
322	8
323	5
324	5
325	6
326	5
327	7
DEPOT_SECTION
1
-1
EOF
