experiment/data/lkh-res/Vrp-Set-X-n327/Vrp-Set-X-n327-lkh/0.lkh1.tour
NAME : 0.2807164.tour
COMMENT : Length = 2807164
COMMENT : Found by LKH-3 [Keld Helsgaun] Tue Apr  9 06:43:59 2024
TYPE : TOUR
DIMENSION : 346
TOUR_SECTION
1
182
192
7
276
188
38
194
277
117
232
107
300
327
323
179
71
111
341
164
139
208
307
165
259
286
37
62
226
287
8
135
146
79
64
337
249
24
189
296
193
180
308
13
235
184
250
88
252
121
191
31
344
279
239
58
321
132
73
69
152
94
131
35
242
43
33
236
128
299
345
22
120
12
145
108
110
66
47
163
70
32
157
136
29
45
324
265
335
256
288
57
106
68
113
54
99
65
30
115
27
81
14
231
293
331
234
119
44
243
140
102
105
151
85
114
53
26
75
20
133
46
141
23
342
305
225
304
206
155
297
222
211
154
301
84
275
167
101
51
229
339
127
248
202
2
176
80
153
162
315
19
95
317
147
281
122
25
310
11
334
97
228
233
177
209
201
260
213
185
172
319
125
298
149
283
333
150
100
36
203
28
284
306
258
123
72
4
82
5
90
219
103
21
330
320
17
156
60
159
92
48
15
63
190
77
148
144
3
311
40
261
329
254
264
237
166
238
196
269
220
328
295
126
290
49
247
303
142
138
187
273
271
214
158
251
59
346
9
257
322
207
210
169
241
86
230
316
294
227
183
253
262
282
325
336
34
314
41
93
217
168
274
215
266
246
221
280
199
289
326
218
338
263
312
224
212
267
112
175
129
302
104
318
181
313
173
171
245
56
240
332
10
74
134
83
116
91
52
98
78
6
39
143
124
76
55
130
61
205
340
89
309
174
292
67
255
278
291
197
216
42
118
87
204
16
96
272
198
343
223
244
50
268
285
161
137
270
200
178
195
109
18
170
160
186
-1
EOF
